Maximize
  0.000852048 Z_490_0_0 + 0.00359233850646672 Z_490_0_1
   + 0.4626870241656052 Z_490_0_2 + 0.00304490555390769 Z_490_0_3
   + 0.4298236837682743 Z_490_0_4
Subject To
 constraint1_4900: Z_490_0_0 + Z_490_0_1 + Z_490_0_2 + Z_490_0_3
   + Z_490_0_4 <= 1
 constraint2_4900: Z_490_0_0 <= 1
 constraint2_4901: Z_490_0_1 <= 1
 constraint2_4902: Z_490_0_2 <= 1
 constraint2_4903: Z_490_0_3 <= 1
Bounds
Binaries
 Z_490_0_0 Z_490_0_1 Z_490_0_2 Z_490_0_3 Z_490_0_4
End
